;---
; using 8-bit bit-vectors as characters
; check intersection nonemptiness of .Net regexes
; regexA = ^([A-Z]{2}|[a-z]{2} [1-9]{2} [A-Z]{1,2}|[a-z]{1,2} [1-9]{1,4})?([A-Z]{3}|[a-z]{3} [1-9]{1,4})?\z
; regexB = ^([A-Z]{2}|[a-z]{2} \d{2} [A-Z]{1,2}|[a-z]{1,2} \d{1,4})?([A-Z]{3}|[a-z]{3} \d{1,4})?\z
;---
(set-info :status sat)
(set-option :print-success true)
(set-logic QF_BVRE)

(declare-const regexA (RegEx String))
(declare-const regexB (RegEx String))
(declare-const x String)

;witness: ""
(define-fun Witness () String "")

(assert (= regexA (re.++ (str.to_re "")(re.++ (re.opt (re.union ((_ re.loop 2 2) (re.range "A" "Z"))(re.union (re.++ ((_ re.loop 2 2) (re.range "a" "z"))(re.++ (re.range " " " ")(re.++ ((_ re.loop 2 2) (re.range "1" "9"))(re.++ (re.range " " " ") ((_ re.loop 1 2) (re.range "A" "Z")))))) (re.++ ((_ re.loop 1 2) (re.range "a" "z"))(re.++ (re.range " " " ") ((_ re.loop 1 4) (re.range "1" "9")))))))(re.++ (re.opt (re.union ((_ re.loop 3 3) (re.range "A" "Z")) (re.++ ((_ re.loop 3 3) (re.range "a" "z"))(re.++ (re.range " " " ") ((_ re.loop 1 4) (re.range "1" "9")))))) (str.to_re ""))))))

(assert (= regexB (re.++ (str.to_re "")(re.++ (re.opt (re.union ((_ re.loop 2 2) (re.range "A" "Z"))(re.union (re.++ ((_ re.loop 2 2) (re.range "a" "z"))(re.++ (re.range " " " ")(re.++ ((_ re.loop 2 2) (re.range "0" "9"))(re.++ (re.range " " " ") ((_ re.loop 1 2) (re.range "A" "Z")))))) (re.++ ((_ re.loop 1 2) (re.range "a" "z"))(re.++ (re.range " " " ") ((_ re.loop 1 4) (re.range "0" "9")))))))(re.++ (re.opt (re.union ((_ re.loop 3 3) (re.range "A" "Z")) (re.++ ((_ re.loop 3 3) (re.range "a" "z"))(re.++ (re.range " " " ") ((_ re.loop 1 4) (re.range "0" "9")))))) (str.to_re ""))))))

;check that the intersection is nonempty, contains some x
(assert (str.in_re x regexA))
(assert (str.in_re x regexB))
;check also the concrete witness
(assert (str.in_re Witness regexA))
(assert (str.in_re Witness regexB))
(check-sat)
